<number of tasks>
250

<cycle time>
1000

<order strength>
0.598


<task times>
1 48
2 269
3 108
4 91
5 123
6 45
7 56
8 176
9 73
10 179
11 131
12 133
13 120
14 198
15 249
16 75
17 233
18 109
19 76
20 160
21 132
22 60
23 265
24 100
25 312
26 63
27 78
28 197
29 73
30 138
31 122
32 274
33 24
34 41
35 149
36 184
37 44
38 304
39 175
40 48
41 181
42 211
43 51
44 67
45 80
46 125
47 71
48 130
49 74
50 128
51 47
52 198
53 45
54 98
55 88
56 36
57 273
58 175
59 228
60 131
61 217
62 157
63 159
64 234
65 152
66 93
67 197
68 143
69 92
70 89
71 71
72 233
73 45
74 237
75 69
76 102
77 44
78 49
79 243
80 227
81 249
82 146
83 130
84 52
85 83
86 146
87 167
88 69
89 116
90 175
91 249
92 86
93 200
94 186
95 52
96 173
97 59
98 98
99 76
100 166
101 94
102 166
103 43
104 121
105 275
106 50
107 215
108 155
109 89
110 186
111 171
112 164
113 117
114 46
115 181
116 88
117 249
118 46
119 144
120 207
121 35
122 226
123 211
124 86
125 80
126 119
127 103
128 194
129 101
130 171
131 220
132 39
133 210
134 172
135 65
136 103
137 246
138 63
139 195
140 103
141 196
142 283
143 102
144 127
145 344
146 222
147 197
148 75
149 35
150 234
151 360
152 235
153 312
154 123
155 170
156 120
157 226
158 109
159 145
160 141
161 155
162 309
163 139
164 76
165 291
166 201
167 298
168 162
169 129
170 145
171 98
172 138
173 32
174 219
175 202
176 86
177 222
178 93
179 90
180 323
181 165
182 99
183 62
184 92
185 42
186 135
187 247
188 25
189 301
190 319
191 129
192 46
193 228
194 188
195 137
196 281
197 39
198 344
199 131
200 159
201 178
202 151
203 128
204 201
205 62
206 39
207 56
208 182
209 222
210 391
211 244
212 95
213 166
214 348
215 178
216 142
217 29
218 159
219 88
220 197
221 50
222 233
223 203
224 157
225 65
226 148
227 300
228 193
229 96
230 150
231 34
232 196
233 68
234 217
235 172
236 35
237 36
238 300
239 145
240 179
241 215
242 219
243 133
244 161
245 37
246 146
247 112
248 192
249 151
250 121

<precedence relations>
1,60
2,242
3,242
4,132
5,85
6,85
7,83
8,83
9,10
9,11
9,12
9,13
9,14
9,15
9,16
9,17
9,18
10,242
11,85
12,85
13,102
14,102
15,83
16,83
17,190
18,19
18,20
18,21
18,22
18,23
19,132
20,130
21,83
22,190
23,24
23,25
23,26
23,27
23,28
23,29
23,30
23,31
24,60
25,102
26,130
27,111
28,215
29,83
30,32
30,34
30,37
31,33
31,35
31,36
31,79
31,84
32,85
33,111
34,83
35,83
36,83
37,38
37,39
38,111
39,40
39,41
39,42
39,43
39,44
39,45
40,218
41,218
42,85
43,173
44,111
45,46
45,47
45,48
45,49
45,50
46,173
47,173
48,130
49,83
50,51
50,52
50,53
50,54
50,55
50,56
50,57
50,58
50,59
51,60
52,60
53,60
54,242
55,242
56,102
57,173
58,173
59,61
59,62
59,63
59,64
59,65
59,66
59,67
59,68
59,69
59,70
60,71
60,72
60,73
60,74
60,75
60,76
60,77
61,132
62,85
63,130
64,130
65,215
66,83
67,83
68,83
69,190
70,78
71,83
72,79
72,80
72,81
72,84
73,79
73,83
74,81
74,84
75,82
75,88
75,125
75,149
76,102
77,79
77,80
77,89
77,104
78,79
78,104
79,85
80,85
81,130
82,215
83,85
83,86
83,87
83,88
83,91
83,92
83,93
83,94
83,95
83,96
84,85
84,87
84,88
84,89
84,90
84,97
85,98
85,99
85,100
85,101
85,102
85,103
86,102
87,102
88,173
89,215
90,215
91,103
91,132
92,104
92,128
92,129
92,130
93,121
94,102
94,111
94,113
95,113
95,114
95,166
96,102
97,102
97,103
97,113
98,111
99,111
99,119
99,127
100,111
101,112
101,113
101,129
102,105
102,106
102,107
102,108
102,109
102,110
102,112
103,173
104,112
104,133
105,114
105,119
105,131
105,149
106,120
106,125
107,131
108,119
108,120
108,121
108,122
109,114
109,119
109,162
109,163
110,114
110,191
111,115
111,116
111,117
111,118
112,190
113,119
113,122
113,161
114,173
115,124
115,132
115,133
116,149
116,159
116,160
117,125
118,167
118,170
119,215
120,126
120,131
120,157
121,123
121,125
121,126
122,123
122,124
123,218
124,130
125,128
125,129
125,131
126,127
126,130
127,177
128,132
129,173
130,134
130,135
130,136
130,137
130,138
130,139
130,140
130,141
130,142
130,143
130,144
130,145
130,146
130,147
130,148
130,149
131,133
131,159
131,165
132,150
132,151
132,152
132,153
132,154
133,173
134,243
135,158
135,177
136,158
136,171
136,191
137,231
138,211
139,174
140,158
140,167
140,168
141,155
141,159
141,191
142,158
142,162
142,171
143,155
143,156
143,174
144,164
145,155
145,171
146,165
146,176
147,168
148,191
149,155
149,170
150,172
151,159
151,160
152,157
152,161
153,210
153,212
154,156
154,158
154,171
155,158
156,215
157,215
158,190
160,161
160,162
160,163
161,177
162,173
163,164
163,165
163,166
163,167
163,168
163,169
163,170
164,242
165,218
166,173
167,173
168,171
168,172
168,174
168,175
169,241
169,244
170,171
170,176
171,177
172,177
173,177
173,178
173,179
173,180
173,181
173,182
173,183
173,184
173,185
173,186
173,187
173,188
173,189
174,190
175,191
175,212
176,190
177,192
177,193
177,194
177,195
177,196
177,197
177,198
177,199
177,200
177,201
177,202
178,216
181,215
184,213
187,215
187,218
188,210
189,210
189,216
190,203
190,204
190,205
190,206
190,207
190,208
190,209
190,210
192,213
193,213
198,231
200,211
201,213
202,211
202,212
203,213
203,215
204,213
204,217
205,214
205,241
206,244
207,211
207,212
210,211
210,213
210,217
211,215
212,216
213,214
213,230
214,218
215,219
215,220
215,221
215,222
215,223
215,224
215,225
215,226
215,227
215,228
215,229
215,230
216,217
217,242
218,232
218,233
218,234
218,235
218,236
218,237
218,238
218,239
218,240
220,241
220,244
221,231
223,242
226,231
228,241
231,242
239,242
239,243
239,244
242,245
242,246
242,247
242,248
242,249
242,250

<end>
